NAME: cum230.tsp
TYPE: TSP
COMMENT: User-generated TSP file
DIMENSION: 230
EDGE_WEIGHT_TYPE: EUC_2D
NODE_COORD_SECTION
1 155.0 215.0
2 131.0 204.0
3 145.0 131.0
4 5.0 113.0
5 118.0 91.0
6 86.0 4.0
7 223.0 201.0
8 148.0 220.0
9 183.0 120.0
10 23.0 175.0
11 79.0 204.0
12 192.0 74.0
13 190.0 86.0
14 90.0 117.0
15 193.0 174.0
16 81.0 116.0
17 126.0 121.0
18 105.0 22.0
19 94.0 190.0
20 86.0 187.0
21 53.0 34.0
22 86.0 33.0
23 92.0 190.0
24 77.0 54.0
25 129.0 136.0
26 86.0 99.0
27 30.0 44.0
28 21.0 112.0
29 134.0 83.0
30 128.0 124.0
31 72.0 89.0
32 1.0 225.0
33 229.0 50.0
34 88.0 25.0
35 84.0 188.0
36 33.0 76.0
37 172.0 107.0
38 207.0 38.0
39 102.0 66.0
40 39.0 165.0
41 107.0 24.0
42 199.0 129.0
43 192.0 46.0
44 37.0 159.0
45 31.0 230.0
46 208.0 166.0
47 110.0 205.0
48 13.0 95.0
49 4.0 229.0
50 79.0 170.0
51 219.0 85.0
52 166.0 60.0
53 128.0 168.0
54 118.0 213.0
55 67.0 104.0
56 91.0 49.0
57 180.0 42.0
58 14.0 33.0
59 129.0 123.0
60 104.0 98.0
61 76.0 112.0
62 37.0 109.0
63 50.0 17.0
64 107.0 176.0
65 86.0 144.0
66 112.0 109.0
67 18.0 157.0
68 225.0 65.0
69 146.0 181.0
70 73.0 116.0
71 108.0 222.0
72 12.0 188.0
73 132.0 144.0
74 196.0 2.0
75 159.0 194.0
76 50.0 219.0
77 32.0 50.0
78 215.0 210.0
79 144.0 88.0
80 144.0 63.0
81 182.0 20.0
82 33.0 106.0
83 76.0 228.0
84 172.0 217.0
85 57.0 201.0
86 219.0 147.0
87 9.0 187.0
88 3.0 221.0
89 165.0 31.0
90 81.0 149.0
91 172.0 45.0
92 187.0 95.0
93 127.0 194.0
94 33.0 1.0
95 41.0 53.0
96 216.0 154.0
97 175.0 93.0
98 32.0 140.0
99 14.0 6.0
100 37.0 1.0
101 19.0 189.0
102 104.0 146.0
103 228.0 62.0
104 63.0 195.0
105 187.0 13.0
106 159.0 180.0
107 195.0 112.0
108 28.0 195.0
109 150.0 60.0
110 41.0 165.0
111 72.0 181.0
112 112.0 181.0
113 168.0 54.0
114 48.0 8.0
115 25.0 109.0
116 166.0 216.0
117 134.0 57.0
118 114.0 225.0
119 170.0 183.0
120 54.0 210.0
121 89.0 89.0
122 219.0 148.0
123 69.0 207.0
124 209.0 163.0
125 111.0 71.0
126 24.0 179.0
127 206.0 59.0
128 184.0 78.0
129 79.0 82.0
130 25.0 72.0
131 204.0 126.0
132 55.0 31.0
133 17.0 46.0
134 156.0 129.0
135 226.0 152.0
136 98.0 200.0
137 228.0 186.0
138 19.0 148.0
139 157.0 208.0
140 219.0 23.0
141 144.0 106.0
142 230.0 194.0
143 46.0 58.0
144 167.0 22.0
145 46.0 148.0
146 69.0 173.0
147 85.0 178.0
148 105.0 148.0
149 194.0 71.0
150 197.0 17.0
151 128.0 15.0
152 76.0 73.0
153 137.0 152.0
154 169.0 215.0
155 19.0 91.0
156 126.0 199.0
157 114.0 46.0
158 103.0 125.0
159 226.0 184.0
160 57.0 135.0
161 83.0 86.0
162 35.0 154.0
163 48.0 7.0
164 35.0 21.0
165 174.0 186.0
166 57.0 67.0
167 39.0 159.0
168 58.0 62.0
169 10.0 53.0
170 229.0 7.0
171 25.0 93.0
172 103.0 169.0
173 5.0 111.0
174 140.0 17.0
175 123.0 143.0
176 223.0 183.0
177 111.0 159.0
178 143.0 204.0
179 124.0 230.0
180 168.0 207.0
181 77.0 119.0
182 177.0 205.0
183 72.0 92.0
184 177.0 110.0
185 155.0 20.0
186 137.0 132.0
187 218.0 149.0
188 60.0 125.0
189 15.0 163.0
190 211.0 164.0
191 217.0 166.0
192 79.0 2.0
193 120.0 74.0
194 147.0 21.0
195 185.0 226.0
196 97.0 168.0
197 77.0 34.0
198 46.0 19.0
199 216.0 189.0
200 90.0 83.0
201 31.0 137.0
202 192.0 213.0
203 75.0 122.0
204 62.0 171.0
205 32.0 133.0
206 188.0 187.0
207 173.0 7.0
208 76.0 164.0
209 10.0 217.0
210 75.0 157.0
211 143.0 99.0
212 31.0 140.0
213 9.0 93.0
214 213.0 72.0
215 73.0 89.0
216 146.0 11.0
217 78.0 13.0
218 143.0 189.0
219 97.0 200.0
220 125.0 208.0
221 164.0 41.0
222 60.0 130.0
223 205.0 184.0
224 137.0 111.0
225 176.0 24.0
226 57.0 81.0
227 225.0 176.0
228 34.0 102.0
229 116.0 49.0
230 123.0 18.0
EOF





